Version identifier: 22.1.0.0 | 2022-03-09 | 1a383f8ce
CPXPARAM_Threads                                 1
CPXPARAM_MIP_Strategy_VariableSelect             3
CPXPARAM_TimeLimit                               599.99552815899995
Tried aggregator 1 time.
MIP Presolve eliminated 17 rows and 0 columns.
MIP Presolve modified 5 coefficients.
Reduced MIP has 1160 rows, 4800 columns, and 65378 nonzeros.
Reduced MIP has 4800 binaries, 0 generals, 0 SOSs, and 0 indicators.
Presolve time = 0.03 sec. (25.07 ticks)
Found incumbent of value 0.000000 after 0.10 sec. (68.59 ticks)

Root node processing (before b&c):
  Real time             =    0.10 sec. (68.78 ticks)
Sequential b&c:
  Real time             =    0.00 sec. (0.00 ticks)
                          ------------
Total (root+branch&cut) =    0.10 sec. (68.78 ticks)
Version identifier: 22.1.0.0 | 2022-03-09 | 1a383f8ce
CPXPARAM_Threads                                 1
CPXPARAM_MIP_Strategy_VariableSelect             3
CPXPARAM_TimeLimit                               599.86458058899996
Tried aggregator 1 time.
MIP Presolve eliminated 17 rows and 0 columns.
MIP Presolve modified 5 coefficients.
Reduced MIP has 1484 rows, 6150 columns, and 84062 nonzeros.
Reduced MIP has 6150 binaries, 0 generals, 0 SOSs, and 0 indicators.
Presolve time = 0.04 sec. (31.93 ticks)
Found incumbent of value 0.000000 after 0.14 sec. (98.27 ticks)

Root node processing (before b&c):
  Real time             =    0.14 sec. (98.51 ticks)
Sequential b&c:
  Real time             =    0.00 sec. (0.00 ticks)
                          ------------
Total (root+branch&cut) =    0.14 sec. (98.51 ticks)
Version identifier: 22.1.0.0 | 2022-03-09 | 1a383f8ce
CPXPARAM_Threads                                 1
CPXPARAM_MIP_Strategy_VariableSelect             3
CPXPARAM_TimeLimit                               599.68767690100003
Tried aggregator 1 time.
MIP Presolve eliminated 17 rows and 0 columns.
MIP Presolve modified 2 coefficients.
Reduced MIP has 1646 rows, 6825 columns, and 93404 nonzeros.
Reduced MIP has 6825 binaries, 0 generals, 0 SOSs, and 0 indicators.
Presolve time = 0.05 sec. (35.17 ticks)
Found incumbent of value 0.000000 after 0.15 sec. (108.95 ticks)

Root node processing (before b&c):
  Real time             =    0.15 sec. (109.22 ticks)
Sequential b&c:
  Real time             =    0.00 sec. (0.00 ticks)
                          ------------
Total (root+branch&cut) =    0.15 sec. (109.22 ticks)
Version identifier: 22.1.0.0 | 2022-03-09 | 1a383f8ce
CPXPARAM_Threads                                 1
CPXPARAM_MIP_Strategy_VariableSelect             3
CPXPARAM_TimeLimit                               599.48918578999996
Tried aggregator 1 time.
MIP Presolve eliminated 17 rows and 0 columns.
MIP Presolve modified 2 coefficients.
Reduced MIP has 1730 rows, 7175 columns, and 98248 nonzeros.
Reduced MIP has 7175 binaries, 0 generals, 0 SOSs, and 0 indicators.
Presolve time = 0.05 sec. (36.95 ticks)
Found incumbent of value 0.000000 after 0.16 sec. (113.07 ticks)

Root node processing (before b&c):
  Real time             =    0.16 sec. (113.35 ticks)
Sequential b&c:
  Real time             =    0.00 sec. (0.00 ticks)
                          ------------
Total (root+branch&cut) =    0.16 sec. (113.35 ticks)
Version identifier: 22.1.0.0 | 2022-03-09 | 1a383f8ce
CPXPARAM_Threads                                 1
CPXPARAM_MIP_Strategy_VariableSelect             3
CPXPARAM_TimeLimit                               599.28419274700002
Tried aggregator 1 time.
MIP Presolve eliminated 17 rows and 0 columns.
MIP Presolve modified 2 coefficients.
Reduced MIP has 1772 rows, 7350 columns, and 100670 nonzeros.
Reduced MIP has 7350 binaries, 0 generals, 0 SOSs, and 0 indicators.
Presolve time = 0.05 sec. (37.84 ticks)
Found incumbent of value 0.000000 after 0.17 sec. (121.57 ticks)

Root node processing (before b&c):
  Real time             =    0.17 sec. (121.85 ticks)
Sequential b&c:
  Real time             =    0.00 sec. (0.00 ticks)
                          ------------
Total (root+branch&cut) =    0.17 sec. (121.85 ticks)
Version identifier: 22.1.0.0 | 2022-03-09 | 1a383f8ce
CPXPARAM_Threads                                 1
CPXPARAM_MIP_Strategy_VariableSelect             3
CPXPARAM_TimeLimit                               599.06548471099995
Tried aggregator 1 time.
MIP Presolve eliminated 17 rows and 0 columns.
MIP Presolve modified 2 coefficients.
Reduced MIP has 1790 rows, 7425 columns, and 101708 nonzeros.
Reduced MIP has 7425 binaries, 0 generals, 0 SOSs, and 0 indicators.
Presolve time = 0.05 sec. (38.22 ticks)
Found incumbent of value 0.000000 after 0.17 sec. (117.91 ticks)

Root node processing (before b&c):
  Real time             =    0.17 sec. (118.20 ticks)
Sequential b&c:
  Real time             =    0.00 sec. (0.00 ticks)
                          ------------
Total (root+branch&cut) =    0.17 sec. (118.20 ticks)
Version identifier: 22.1.0.0 | 2022-03-09 | 1a383f8ce
CPXPARAM_Threads                                 1
CPXPARAM_MIP_Strategy_VariableSelect             3
CPXPARAM_TimeLimit                               598.84980333800002
Tried aggregator 1 time.
MIP Presolve eliminated 17 rows and 0 columns.
MIP Presolve modified 2 coefficients.
Reduced MIP has 1802 rows, 7475 columns, and 102400 nonzeros.
Reduced MIP has 7475 binaries, 0 generals, 0 SOSs, and 0 indicators.
Presolve time = 0.05 sec. (38.47 ticks)
Found incumbent of value 0.000000 after 0.17 sec. (122.42 ticks)

Root node processing (before b&c):
  Real time             =    0.17 sec. (122.71 ticks)
Sequential b&c:
  Real time             =    0.00 sec. (0.00 ticks)
                          ------------
Total (root+branch&cut) =    0.17 sec. (122.71 ticks)
Version identifier: 22.1.0.0 | 2022-03-09 | 1a383f8ce
CPXPARAM_Threads                                 1
CPXPARAM_MIP_Strategy_VariableSelect             3
CPXPARAM_TimeLimit                               598.62700020800003
Tried aggregator 1 time.
MIP Presolve eliminated 17 rows and 0 columns.
MIP Presolve modified 2 coefficients.
Reduced MIP has 1808 rows, 7500 columns, and 102746 nonzeros.
Reduced MIP has 7500 binaries, 0 generals, 0 SOSs, and 0 indicators.
Presolve time = 0.05 sec. (38.60 ticks)
Found incumbent of value 0.000000 after 0.17 sec. (120.69 ticks)

Root node processing (before b&c):
  Real time             =    0.17 sec. (120.98 ticks)
Sequential b&c:
  Real time             =    0.00 sec. (0.00 ticks)
                          ------------
Total (root+branch&cut) =    0.17 sec. (120.98 ticks)
Primal:	300
Dual:	300
Status:	Optimal
Time:	1.58519
Sequence:
	8
	15
	3
	5
	3
	23
	8
	1
	4
	3
	6
	0
	6
	17
	10
	4
	8
	17
	6
	13
	16
	4
	4
	0
	1
	9
	22
	4
	12
	14
	21
	4
	0
	6
	1
	23
	3
	5
	1
	20
	21
	3
	13
	6
	1
	16
	24
	3
	9
	16
	4
	22
	24
	3
	5
	9
	1
	6
	0
	5
	20
	16
	6
	23
	20
	7
	16
	18
	5
	12
	12
	0
	20
	0
	14
	3
	21
	16
	23
	3
	0
	18
	8
	6
	1
	16
	21
	12
	2
	0
	6
	1
	22
	3
	15
	21
	11
	6
	11
	15
	6
	13
	13
	9
	6
	9
	24
	6
	2
	4
	16
	3
	0
	16
	9
	3
	16
	12
	3
	21
	24
	4
	12
	16
	1
	12
	16
	0
	5
	6
	6
	21
	9
	20
	9
	7
	14
	1
	22
	3
	20
	21
	3
	3
	18
	6
	23
	4
	11
	16
	5
	20
	22
	20
	4
	0
	21
	3
	15
	13
	6
	0
	11
	6
	6
	11
	12
	5
	11
	6
	3
	6
	16
	8
	4
	17
	5
	22
	17
	8
	4
	9
	0
	21
	20
	1
	21
	13
	12
	6
	8
	4
	19
	17
	13
	20
	0
	16
	2
	6
	15
	5
	12
	0
	3
	9
	15
	16
	3
	23
	20
	4
	13
	9
	6
	10
	18
	13
	6
	22
	16
	13
	10
	16
	16
	21
	20
	16
	6
	8
	3
	4
	20
	10
	12
	14
	6
	14
	15
	8
	0
	0
	9
	10
	21
	3
	11
	1
	20
	0
	13
	3
	7
	17
	5
	7
	3
	8
	6
	10
	13
	21
	20
	0
	0
	6
	5
	12
	0
	9
	10
	6
	24
	3
	2
	3
	22
	20
	3
	6
	14
	20
	12
	21
	17
	12
	24
	1
	6
	12
	17
	16
	14
	13
	20
	7
	15
	17
	9
	22
